\ENCODING=ISO-8859-1
\Problem name: RCFLP

Minimize
 obj: 1.25 W_0 + 1.75 W_1 + 0.75 W_2 + 2.25 W_3 + 6.5 V_3 + 1.75 W_4 + 7 V_4
      + 0.75 W_5 + 6.5 V_5 + 1.75 W_6 + 5.5 V_6 + 0.75 W_7 + 2 V_7 + 1.625 W_8
      + 8 V_8 + 5 V_9 + 1.75 W_9 + 1.25 W_10 + 1.75 W_11 + 3 V_10 + 0.875 W_12
      + 1.25 W_13 + 8 V_11 + 4 V_12 + 2.5 V_13 + 1.375 W_14 + 1.375 W_15
      + 1.375 W_16 + 0.375 W_17 + 7 V_14 + 5 V_15 + 2.5 V_16 + 1.625 W_18
      + 0.375 W_19 + 1.375 W_20 + 1.875 W_21 + 7 V_17 + 5 V_18 + 2.5 V_19
      + 0.875 W_22 + 1.125 W_23 + 0.625 W_24 + 7 V_20 + 5 V_21 + 2.5 V_22
      + 0.5 W_25 + 2.125 W_26 + 7 V_23 + 5 V_24 + 2.5 V_25 + W_27 + 7 V_26
      + 5 V_27 + 2.5 V_28 + 7 V_29 + 5 V_30 + 2.5 V_31 + 7 V_32 + 5 V_33
      + 2.5 V_34 + 7 V_35 + 5 V_36 + 2.5 V_37 + 7 V_38 + 5 V_39 + 2.5 V_40
      + 7 V_41 + 5 V_42 + 2.5 V_43 + 7 V_44 + 5 V_45 + 2.5 V_46 + 7 V_47
      + 5 V_48 + 2.5 V_49 + 7 V_50 + 5 V_51 + 2.5 V_52 + 7 V_53 + 5 V_54
      + 2.5 V_55 + 7 V_56 + 5 V_57 + 2.5 V_58 + 7 V_59 + 5 V_60 + 2.5 V_61
      + 7 V_62 + 5 V_63 + 2.5 V_64 + 7 V_65 + 5 V_66 + 2.5 V_67 + 7 V_68
      + 5 V_69 + 2.5 V_70 + 7 V_71 + 5 V_72 + 2.5 V_73 + 7 V_74 + 5 V_75
      + 2.5 V_76 + 7 V_77 + 5 V_78 + 2.5 V_79 + 7 V_80 + 5 V_81 + 2.5 V_82
      + 7 V_83 + 5 V_84 + 2.5 V_85 + 7 V_86 + 5 V_87 + 2.5 V_88 + 7 V_89
      + 5 V_90 + 2.5 V_91 + 7 V_92 + 5 V_93 + 2.5 V_94 + 7 V_95 + 5 V_96
      + 2.5 V_97 + 7 V_98 + 5 V_99 + 2.5 V_100 + 7 V_101 + 5 V_102 + 2.5 V_103
      + 7 V_104 + 5 V_105 + 2.5 V_106 + 7 V_107 + 5 V_108 + 2.5 V_109 + 7 V_110
      + 5 V_111 + 2.5 V_112 + 7 V_113 + 5 V_114 + 2.5 V_115 + 7 V_116 + 5 V_117
      + 2.5 V_118 + 7 V_119 + 5 V_120 + 2.5 V_121 + 7 V_122 + 5 V_123
      + 2.5 V_124 + 7 V_125 + 5 V_126 + 2.5 V_127 + 7 V_128 + 5 V_129
      + 2.5 V_130 + 7 V_131 + 5 V_132 + 2.5 V_133 + 7 V_134 + 5 V_135
      + 2.5 V_136 + 7 V_137 + 5 V_138 + 2.5 V_139 + 7 V_140 + 5 V_141
      + 2.5 V_142 + 7 V_143 + 5 V_144 + 2.5 V_145 + 7 V_146 + 5 V_147
      + 2.5 V_148 + 7 V_149 + 5 V_150 + 2.5 V_151 + 7 V_152 + 5 V_153
      + 2.5 V_154 + 7 V_155 + 5 V_156 + 2.5 V_157 + 7 V_158 + 5 V_159
      + 2.5 V_160 + 7 V_161 + 5 V_162 + 2.5 V_163 + 7 V_164 + 5 V_165
      + 2.5 V_166 + 7 V_167 + 5 V_168 + 2.5 V_169 + 7 V_170 + 5 V_171
      + 2.5 V_172 + 7 V_173 + 5 V_174 + 2.5 V_175 + 7 V_176 + 5 V_177
      + 2.5 V_178 + 7 V_179 + 5 V_180 + 2.5 V_181 + 7 V_182 + 5 V_183
      + 2.5 V_184 + 7 V_185 + 5 V_186 + 2.5 V_187 + 7 V_188 + 5 V_189
      + 2.5 V_190 + 7 V_191 + 5 V_192 + 2.5 V_193 + 7 V_194 + 5 V_195
      + 2.5 V_196 + 7 V_197 + 5 V_198 + 2.5 V_199 + 7 V_200 + 5 V_201
      + 2.5 V_202 + 7 V_203 + 5 V_204 + 2.5 V_205 + 7 V_206 + 5 V_207
      + 2.5 V_208 + 7 V_209 + 5 V_210 + 2.5 V_211 + 7 V_212 + 5 V_213
      + 2.5 V_214 + 7 V_215 + 5 V_216 + 2.5 V_217 + 7 V_218 + 5 V_219
      + 2.5 V_220 + 7 V_221 + 5 V_222 + 2.5 V_223 + 7 V_224 + 5 V_225
      + 2.5 V_226 + 7 V_227 + 5 V_228 + 2.5 V_229 + 7 V_230 + 5 V_231
      + 2.5 V_232 + 7 V_233 + 5 V_234 + 2.5 V_235 + 7 V_236 + 5 V_237
      + 2.5 V_238 + 7 V_239 + 5 V_240 + 2.5 V_241 + 7 V_242 + 5 V_243
      + 2.5 V_244 + 7 V_245 + 5 V_246 + 2.5 V_247 + 7 V_248 + 5 V_249
      + 2.5 V_250 + 7 V_251 + 5 V_252 + 2.5 V_253 + 7 V_254 + 5 V_255
      + 2.5 V_256 + 7 V_257 + 5 V_258 + 2.5 V_259 + 7 V_260 + 5 V_261
      + 2.5 V_262 + 7 V_263 + 5 V_264 + 2.5 V_265 + 7 V_266 + 5 V_267
      + 2.5 V_268 + 7 V_269 + 5 V_270 + 2.5 V_271 + 7 V_272 + 5 V_273
      + 2.5 V_274 + 7 V_275 + 5 V_276 + 2.5 V_277 + 7 V_278 + 5 V_279
      + 2.5 V_280 + 7 V_281 + 5 V_282 + 2.5 V_283 + 7 V_284 + 5 V_285
      + 2.5 V_286 + 7 V_287 + 5 V_288 + 2.5 V_289 + 7 V_290 + 5 V_291
      + 2.5 V_292 + 7 V_293 + 5 V_294 + 2.5 V_295 + 7 V_296 + 5 V_297
      + 2.5 V_298 + 7 V_299 + 5 V_300 + 2.5 V_301 + 7 V_302 + 5 V_303
      + 2.5 V_304 + 7 V_305 + 5 V_306 + 2.5 V_307 + 7 V_308 + 5 V_309
      + 2.5 V_310 + 7 V_311 + 5 V_312 + 2.5 V_313 + 7 V_314 + 5 V_315
      + 2.5 V_316 + 7 V_317 + 5 V_318 + 2.5 V_319 + 7 V_320 + 5 V_321
      + 2.5 V_322 + 7 V_323 + 5 V_324 + 2.5 V_325 + 7 V_326 + 5 V_327
      + 2.5 V_328 + 7 V_329 + 5 V_330 + 2.5 V_331 + 7 V_332 + 5 V_333
      + 2.5 V_334 + 7 V_335 + 5 V_336 + 2.5 V_337 + 7 V_338 + 5 V_339
      + 2.5 V_340 + 7 V_341 + 5 V_342 + 2.5 V_343 + 7 V_344 + 5 V_345
      + 2.5 V_346 + 7 V_347 + 5 V_348 + 2.5 V_349 + 7 V_350 + 5 V_351
      + 2.5 V_352 + 7 V_353 + 5 V_354 + 2.5 V_355 + 7 V_356 + 5 V_357
      + 2.5 V_358 + 7 V_359 + 5 V_360 + 2.5 V_361 + 7 V_362 + 5 V_363
      + 2.5 V_364 + 7 V_365 + 5 V_366 + 2.5 V_367 + 7 V_368 + 5 V_369
      + 2.5 V_370 + 7 V_371 + 5 V_372 + 2.5 V_373
Subject To
 _EqCustomerFacilityX(0,0)#0:  - W_0 + V_3 + V_8 - W_12 + V_11 + V_14 + V_17
                               + V_20 + V_23 + V_26 + V_29 + V_32 + V_35 + V_38
                               + V_41 + V_44 + V_47 + V_50 + V_53 + V_56 + V_59
                               + V_62 + V_65 + V_68 + V_71 + V_74 + V_77 + V_80
                               + V_83 + V_86 + V_89 + V_92 + V_95 + V_98
                               + V_101 + V_104 + V_107 + V_110 + V_113 + V_116
                               + V_119 + V_122 + V_125 + V_128 + V_131 + V_134
                               + V_137 + V_140 + V_143 + V_146 + V_149 + V_152
                               + V_155 + V_158 + V_161 + V_164 + V_167 + V_170
                               + V_173 + V_176 + V_179 + V_182 + V_185 + V_188
                               + V_191 + V_194 + V_197 + V_200 + V_203 + V_206
                               + V_209 + V_212 + V_215 + V_218 + V_221 + V_224
                               + V_227 + V_230 + V_233 + V_236 + V_239 + V_242
                               + V_245 + V_248 + V_251 + V_254 + V_257 + V_260
                               + V_263 + V_266 + V_269 + V_272 + V_275 + V_278
                               + V_281 + V_284 + V_287 + V_290 + V_293 + V_296
                               + V_299 + V_302 + V_305 + V_308 + V_311 + V_314
                               + V_317 + V_320 + V_323 + V_326 + V_329 + V_332
                               + V_335 + V_338 + V_341 + V_344 + V_347 + V_350
                               + V_353 + V_356 + V_359 + V_362 + V_365 + V_368
                               + V_371  = 0
 _EqCustomerFacilityX(1,0)#1:  - W_4 - W_8 + V_15 + V_18 + V_21 + V_24 + V_27
                               + V_30 + V_33 + V_36 + V_39 + V_42 + V_45 + V_48
                               + V_51 + V_54 + V_57 + V_60 + V_63 + V_66 + V_69
                               + V_72 + V_75 + V_78 + V_81 + V_84 + V_87 + V_90
                               + V_93 + V_96 + V_99 + V_102 + V_105 + V_108
                               + V_111 + V_114 + V_117 + V_120 + V_123 + V_126
                               + V_129 + V_132 + V_135 + V_138 + V_141 + V_144
                               + V_147 + V_150 + V_153 + V_156 + V_159 + V_162
                               + V_165 + V_168 + V_171 + V_174 + V_177 + V_180
                               + V_183 + V_186 + V_189 + V_192 + V_195 + V_198
                               + V_201 + V_204 + V_207 + V_210 + V_213 + V_216
                               + V_219 + V_222 + V_225 + V_228 + V_231 + V_234
                               + V_237 + V_240 + V_243 + V_246 + V_249 + V_252
                               + V_255 + V_258 + V_261 + V_264 + V_267 + V_270
                               + V_273 + V_276 + V_279 + V_282 + V_285 + V_288
                               + V_291 + V_294 + V_297 + V_300 + V_303 + V_306
                               + V_309 + V_312 + V_315 + V_318 + V_321 + V_324
                               + V_327 + V_330 + V_333 + V_336 + V_339 + V_342
                               + V_345 + V_348 + V_351 + V_354 + V_357 + V_360
                               + V_363 + V_366 + V_369 + V_372  = 0
 _EqCustomerFacilityX(2,0)#2:  - W_9 - W_14 - W_18  = 0
 _EqCustomerFacilityX(0,1)#3:  - W_1 + V_4 + V_8 + V_11 - W_15  = 0
 _EqCustomerFacilityX(1,1)#4:  - W_5 + V_9 + V_12 - W_19 - W_25  = 0
 _EqCustomerFacilityX(2,1)#5:  - W_10 + V_13 + V_16 + V_19 - W_22 + V_22 + V_25
                               - W_27 + V_28 + V_31 + V_34 + V_37 + V_40 + V_43
                               + V_46 + V_49 + V_52 + V_55 + V_58 + V_61 + V_64
                               + V_67 + V_70 + V_73 + V_76 + V_79 + V_82 + V_85
                               + V_88 + V_91 + V_94 + V_97 + V_100 + V_103
                               + V_106 + V_109 + V_112 + V_115 + V_118 + V_121
                               + V_124 + V_127 + V_130 + V_133 + V_136 + V_139
                               + V_142 + V_145 + V_148 + V_151 + V_154 + V_157
                               + V_160 + V_163 + V_166 + V_169 + V_172 + V_175
                               + V_178 + V_181 + V_184 + V_187 + V_190 + V_193
                               + V_196 + V_199 + V_202 + V_205 + V_208 + V_211
                               + V_214 + V_217 + V_220 + V_223 + V_226 + V_229
                               + V_232 + V_235 + V_238 + V_241 + V_244 + V_247
                               + V_250 + V_253 + V_256 + V_259 + V_262 + V_265
                               + V_268 + V_271 + V_274 + V_277 + V_280 + V_283
                               + V_286 + V_289 + V_292 + V_295 + V_298 + V_301
                               + V_304 + V_307 + V_310 + V_313 + V_316 + V_319
                               + V_322 + V_325 + V_328 + V_331 + V_334 + V_337
                               + V_340 + V_343 + V_346 + V_349 + V_352 + V_355
                               + V_358 + V_361 + V_364 + V_367 + V_370 + V_373
                                = 0
 _EqCustomerFacilityX(0,2)#6:  - W_2 + V_5 + V_8 - W_13 + V_11 + V_14 + V_17
                               - W_23 + V_20 + V_23 + V_26 + V_29 + V_32 + V_35
                               + V_38 + V_41 + V_44 + V_47 + V_50 + V_53 + V_56
                               + V_59 + V_62 + V_65 + V_68 + V_71 + V_74 + V_77
                               + V_80 + V_83 + V_86 + V_89 + V_92 + V_95 + V_98
                               + V_101 + V_104 + V_107 + V_110 + V_113 + V_116
                               + V_119 + V_122 + V_125 + V_128 + V_131 + V_134
                               + V_137 + V_140 + V_143 + V_146 + V_149 + V_152
                               + V_155 + V_158 + V_161 + V_164 + V_167 + V_170
                               + V_173 + V_176 + V_179 + V_182 + V_185 + V_188
                               + V_191 + V_194 + V_197 + V_200 + V_203 + V_206
                               + V_209 + V_212 + V_215 + V_218 + V_221 + V_224
                               + V_227 + V_230 + V_233 + V_236 + V_239 + V_242
                               + V_245 + V_248 + V_251 + V_254 + V_257 + V_260
                               + V_263 + V_266 + V_269 + V_272 + V_275 + V_278
                               + V_281 + V_284 + V_287 + V_290 + V_293 + V_296
                               + V_299 + V_302 + V_305 + V_308 + V_311 + V_314
                               + V_317 + V_320 + V_323 + V_326 + V_329 + V_332
                               + V_335 + V_338 + V_341 + V_344 + V_347 + V_350
                               + V_353 + V_356 + V_359 + V_362 + V_365 + V_368
                               + V_371  = 0
 _EqCustomerFacilityX(1,2)#7:  - W_6 + V_9 - W_16  = 0
 _EqCustomerFacilityX(2,2)#8:  - W_11 + V_10 - W_20  = 0
 _EqCustomerFacilityX(0,3)#9:   = 0
 _EqCustomerFacilityX(1,3)#10: - W_3 + V_6 - W_21 - W_26  = 0
 _EqCustomerFacilityX(2,3)#11: - W_7 - W_17 - W_24  = 0
 _EqCustomerFacilityY(0,0)#12: - W_0 + V_3 - W_4 + V_4 + V_5 - W_8 + V_8 - W_9
                               + V_11 - W_14 + V_14 - W_18 + V_17 + V_20 + V_23
                               + V_26 + V_29 + V_32 + V_35 + V_38 + V_41 + V_44
                               + V_47 + V_50 + V_53 + V_56 + V_59 + V_62 + V_65
                               + V_68 + V_71 + V_74 + V_77 + V_80 + V_83 + V_86
                               + V_89 + V_92 + V_95 + V_98 + V_101 + V_104
                               + V_107 + V_110 + V_113 + V_116 + V_119 + V_122
                               + V_125 + V_128 + V_131 + V_134 + V_137 + V_140
                               + V_143 + V_146 + V_149 + V_152 + V_155 + V_158
                               + V_161 + V_164 + V_167 + V_170 + V_173 + V_176
                               + V_179 + V_182 + V_185 + V_188 + V_191 + V_194
                               + V_197 + V_200 + V_203 + V_206 + V_209 + V_212
                               + V_215 + V_218 + V_221 + V_224 + V_227 + V_230
                               + V_233 + V_236 + V_239 + V_242 + V_245 + V_248
                               + V_251 + V_254 + V_257 + V_260 + V_263 + V_266
                               + V_269 + V_272 + V_275 + V_278 + V_281 + V_284
                               + V_287 + V_290 + V_293 + V_296 + V_299 + V_302
                               + V_305 + V_308 + V_311 + V_314 + V_317 + V_320
                               + V_323 + V_326 + V_329 + V_332 + V_335 + V_338
                               + V_341 + V_344 + V_347 + V_350 + V_353 + V_356
                               + V_359 + V_362 + V_365 + V_368 + V_371  = 0
 _EqCustomerFacilityY(1,0)#13: - W_0 - W_4 + V_6 - W_8 + V_9 - W_9 - W_12
                               + V_12 + V_15 - W_18 + V_18 + V_21 + V_24 + V_27
                               + V_30 + V_33 + V_36 + V_39 + V_42 + V_45 + V_48
                               + V_51 + V_54 + V_57 + V_60 + V_63 + V_66 + V_69
                               + V_72 + V_75 + V_78 + V_81 + V_84 + V_87 + V_90
                               + V_93 + V_96 + V_99 + V_102 + V_105 + V_108
                               + V_111 + V_114 + V_117 + V_120 + V_123 + V_126
                               + V_129 + V_132 + V_135 + V_138 + V_141 + V_144
                               + V_147 + V_150 + V_153 + V_156 + V_159 + V_162
                               + V_165 + V_168 + V_171 + V_174 + V_177 + V_180
                               + V_183 + V_186 + V_189 + V_192 + V_195 + V_198
                               + V_201 + V_204 + V_207 + V_210 + V_213 + V_216
                               + V_219 + V_222 + V_225 + V_228 + V_231 + V_234
                               + V_237 + V_240 + V_243 + V_246 + V_249 + V_252
                               + V_255 + V_258 + V_261 + V_264 + V_267 + V_270
                               + V_273 + V_276 + V_279 + V_282 + V_285 + V_288
                               + V_291 + V_294 + V_297 + V_300 + V_303 + V_306
                               + V_309 + V_312 + V_315 + V_318 + V_321 + V_324
                               + V_327 + V_330 + V_333 + V_336 + V_339 + V_342
                               + V_345 + V_348 + V_351 + V_354 + V_357 + V_360
                               + V_363 + V_366 + V_369 + V_372  = 0
 _EqCustomerFacilityY(2,0)#14: - W_0 - W_4 + V_7 - W_9 + V_10 - W_12 + V_13
                               + V_16 + V_19 + V_22 + V_25 + V_28 + V_31 + V_34
                               + V_37 + V_40 + V_43 + V_46 + V_49 + V_52 + V_55
                               + V_58 + V_61 + V_64 + V_67 + V_70 + V_73 + V_76
                               + V_79 + V_82 + V_85 + V_88 + V_91 + V_94 + V_97
                               + V_100 + V_103 + V_106 + V_109 + V_112 + V_115
                               + V_118 + V_121 + V_124 + V_127 + V_130 + V_133
                               + V_136 + V_139 + V_142 + V_145 + V_148 + V_151
                               + V_154 + V_157 + V_160 + V_163 + V_166 + V_169
                               + V_172 + V_175 + V_178 + V_181 + V_184 + V_187
                               + V_190 + V_193 + V_196 + V_199 + V_202 + V_205
                               + V_208 + V_211 + V_214 + V_217 + V_220 + V_223
                               + V_226 + V_229 + V_232 + V_235 + V_238 + V_241
                               + V_244 + V_247 + V_250 + V_253 + V_256 + V_259
                               + V_262 + V_265 + V_268 + V_271 + V_274 + V_277
                               + V_280 + V_283 + V_286 + V_289 + V_292 + V_295
                               + V_298 + V_301 + V_304 + V_307 + V_310 + V_313
                               + V_316 + V_319 + V_322 + V_325 + V_328 + V_331
                               + V_334 + V_337 + V_340 + V_343 + V_346 + V_349
                               + V_352 + V_355 + V_358 + V_361 + V_364 + V_367
                               + V_370 + V_373  = 0
 _EqCustomerFacilityY(0,1)#15: - W_1 + V_3 + V_4 - W_5 + V_5 + V_8 - W_10
                               + V_11 + V_14 - W_19 + V_17 - W_22 + V_20 - W_25
                               + V_23 - W_27 + V_26 + V_29 + V_32 + V_35 + V_38
                               + V_41 + V_44 + V_47 + V_50 + V_53 + V_56 + V_59
                               + V_62 + V_65 + V_68 + V_71 + V_74 + V_77 + V_80
                               + V_83 + V_86 + V_89 + V_92 + V_95 + V_98
                               + V_101 + V_104 + V_107 + V_110 + V_113 + V_116
                               + V_119 + V_122 + V_125 + V_128 + V_131 + V_134
                               + V_137 + V_140 + V_143 + V_146 + V_149 + V_152
                               + V_155 + V_158 + V_161 + V_164 + V_167 + V_170
                               + V_173 + V_176 + V_179 + V_182 + V_185 + V_188
                               + V_191 + V_194 + V_197 + V_200 + V_203 + V_206
                               + V_209 + V_212 + V_215 + V_218 + V_221 + V_224
                               + V_227 + V_230 + V_233 + V_236 + V_239 + V_242
                               + V_245 + V_248 + V_251 + V_254 + V_257 + V_260
                               + V_263 + V_266 + V_269 + V_272 + V_275 + V_278
                               + V_281 + V_284 + V_287 + V_290 + V_293 + V_296
                               + V_299 + V_302 + V_305 + V_308 + V_311 + V_314
                               + V_317 + V_320 + V_323 + V_326 + V_329 + V_332
                               + V_335 + V_338 + V_341 + V_344 + V_347 + V_350
                               + V_353 + V_356 + V_359 + V_362 + V_365 + V_368
                               + V_371  = 0
 _EqCustomerFacilityY(1,1)#16: - W_1 - W_5 + V_6 + V_9 - W_10 + V_12 - W_15
                               + V_15 + V_18 + V_21 + V_24 + V_27 + V_30 + V_33
                               + V_36 + V_39 + V_42 + V_45 + V_48 + V_51 + V_54
                               + V_57 + V_60 + V_63 + V_66 + V_69 + V_72 + V_75
                               + V_78 + V_81 + V_84 + V_87 + V_90 + V_93 + V_96
                               + V_99 + V_102 + V_105 + V_108 + V_111 + V_114
                               + V_117 + V_120 + V_123 + V_126 + V_129 + V_132
                               + V_135 + V_138 + V_141 + V_144 + V_147 + V_150
                               + V_153 + V_156 + V_159 + V_162 + V_165 + V_168
                               + V_171 + V_174 + V_177 + V_180 + V_183 + V_186
                               + V_189 + V_192 + V_195 + V_198 + V_201 + V_204
                               + V_207 + V_210 + V_213 + V_216 + V_219 + V_222
                               + V_225 + V_228 + V_231 + V_234 + V_237 + V_240
                               + V_243 + V_246 + V_249 + V_252 + V_255 + V_258
                               + V_261 + V_264 + V_267 + V_270 + V_273 + V_276
                               + V_279 + V_282 + V_285 + V_288 + V_291 + V_294
                               + V_297 + V_300 + V_303 + V_306 + V_309 + V_312
                               + V_315 + V_318 + V_321 + V_324 + V_327 + V_330
                               + V_333 + V_336 + V_339 + V_342 + V_345 + V_348
                               + V_351 + V_354 + V_357 + V_360 + V_363 + V_366
                               + V_369 + V_372  = 0
 _EqCustomerFacilityY(2,1)#17: - W_1 - W_5 + V_7 - W_10 + V_10 + V_13 - W_15
                               + V_16 + V_19 + V_22 - W_25 + V_25 - W_27 + V_28
                               + V_31 + V_34 + V_37 + V_40 + V_43 + V_46 + V_49
                               + V_52 + V_55 + V_58 + V_61 + V_64 + V_67 + V_70
                               + V_73 + V_76 + V_79 + V_82 + V_85 + V_88 + V_91
                               + V_94 + V_97 + V_100 + V_103 + V_106 + V_109
                               + V_112 + V_115 + V_118 + V_121 + V_124 + V_127
                               + V_130 + V_133 + V_136 + V_139 + V_142 + V_145
                               + V_148 + V_151 + V_154 + V_157 + V_160 + V_163
                               + V_166 + V_169 + V_172 + V_175 + V_178 + V_181
                               + V_184 + V_187 + V_190 + V_193 + V_196 + V_199
                               + V_202 + V_205 + V_208 + V_211 + V_214 + V_217
                               + V_220 + V_223 + V_226 + V_229 + V_232 + V_235
                               + V_238 + V_241 + V_244 + V_247 + V_250 + V_253
                               + V_256 + V_259 + V_262 + V_265 + V_268 + V_271
                               + V_274 + V_277 + V_280 + V_283 + V_286 + V_289
                               + V_292 + V_295 + V_298 + V_301 + V_304 + V_307
                               + V_310 + V_313 + V_316 + V_319 + V_322 + V_325
                               + V_328 + V_331 + V_334 + V_337 + V_340 + V_343
                               + V_346 + V_349 + V_352 + V_355 + V_358 + V_361
                               + V_364 + V_367 + V_370 + V_373  = 0
 _EqCustomerFacilityY(0,2)#18: V_3 + V_4 + V_5 - W_6 + V_8 - W_11 - W_13 + V_11
                               - W_16 + V_14 - W_20 + V_17 - W_23 + V_20 + V_23
                               + V_26 + V_29 + V_32 + V_35 + V_38 + V_41 + V_44
                               + V_47 + V_50 + V_53 + V_56 + V_59 + V_62 + V_65
                               + V_68 + V_71 + V_74 + V_77 + V_80 + V_83 + V_86
                               + V_89 + V_92 + V_95 + V_98 + V_101 + V_104
                               + V_107 + V_110 + V_113 + V_116 + V_119 + V_122
                               + V_125 + V_128 + V_131 + V_134 + V_137 + V_140
                               + V_143 + V_146 + V_149 + V_152 + V_155 + V_158
                               + V_161 + V_164 + V_167 + V_170 + V_173 + V_176
                               + V_179 + V_182 + V_185 + V_188 + V_191 + V_194
                               + V_197 + V_200 + V_203 + V_206 + V_209 + V_212
                               + V_215 + V_218 + V_221 + V_224 + V_227 + V_230
                               + V_233 + V_236 + V_239 + V_242 + V_245 + V_248
                               + V_251 + V_254 + V_257 + V_260 + V_263 + V_266
                               + V_269 + V_272 + V_275 + V_278 + V_281 + V_284
                               + V_287 + V_290 + V_293 + V_296 + V_299 + V_302
                               + V_305 + V_308 + V_311 + V_314 + V_317 + V_320
                               + V_323 + V_326 + V_329 + V_332 + V_335 + V_338
                               + V_341 + V_344 + V_347 + V_350 + V_353 + V_356
                               + V_359 + V_362 + V_365 + V_368 + V_371  = 0
 _EqCustomerFacilityY(1,2)#19: - W_2 - W_6 + V_6 + V_9 - W_11 - W_13 + V_12
                               + V_15 + V_18 - W_23 + V_21 + V_24 + V_27 + V_30
                               + V_33 + V_36 + V_39 + V_42 + V_45 + V_48 + V_51
                               + V_54 + V_57 + V_60 + V_63 + V_66 + V_69 + V_72
                               + V_75 + V_78 + V_81 + V_84 + V_87 + V_90 + V_93
                               + V_96 + V_99 + V_102 + V_105 + V_108 + V_111
                               + V_114 + V_117 + V_120 + V_123 + V_126 + V_129
                               + V_132 + V_135 + V_138 + V_141 + V_144 + V_147
                               + V_150 + V_153 + V_156 + V_159 + V_162 + V_165
                               + V_168 + V_171 + V_174 + V_177 + V_180 + V_183
                               + V_186 + V_189 + V_192 + V_195 + V_198 + V_201
                               + V_204 + V_207 + V_210 + V_213 + V_216 + V_219
                               + V_222 + V_225 + V_228 + V_231 + V_234 + V_237
                               + V_240 + V_243 + V_246 + V_249 + V_252 + V_255
                               + V_258 + V_261 + V_264 + V_267 + V_270 + V_273
                               + V_276 + V_279 + V_282 + V_285 + V_288 + V_291
                               + V_294 + V_297 + V_300 + V_303 + V_306 + V_309
                               + V_312 + V_315 + V_318 + V_321 + V_324 + V_327
                               + V_330 + V_333 + V_336 + V_339 + V_342 + V_345
                               + V_348 + V_351 + V_354 + V_357 + V_360 + V_363
                               + V_366 + V_369 + V_372  = 0
 _EqCustomerFacilityY(2,2)#20: - W_6 + V_7 - W_11 + V_10 - W_13 + V_13 + V_16
                               + V_19 + V_22 + V_25 + V_28 + V_31 + V_34 + V_37
                               + V_40 + V_43 + V_46 + V_49 + V_52 + V_55 + V_58
                               + V_61 + V_64 + V_67 + V_70 + V_73 + V_76 + V_79
                               + V_82 + V_85 + V_88 + V_91 + V_94 + V_97
                               + V_100 + V_103 + V_106 + V_109 + V_112 + V_115
                               + V_118 + V_121 + V_124 + V_127 + V_130 + V_133
                               + V_136 + V_139 + V_142 + V_145 + V_148 + V_151
                               + V_154 + V_157 + V_160 + V_163 + V_166 + V_169
                               + V_172 + V_175 + V_178 + V_181 + V_184 + V_187
                               + V_190 + V_193 + V_196 + V_199 + V_202 + V_205
                               + V_208 + V_211 + V_214 + V_217 + V_220 + V_223
                               + V_226 + V_229 + V_232 + V_235 + V_238 + V_241
                               + V_244 + V_247 + V_250 + V_253 + V_256 + V_259
                               + V_262 + V_265 + V_268 + V_271 + V_274 + V_277
                               + V_280 + V_283 + V_286 + V_289 + V_292 + V_295
                               + V_298 + V_301 + V_304 + V_307 + V_310 + V_313
                               + V_316 + V_319 + V_322 + V_325 + V_328 + V_331
                               + V_334 + V_337 + V_340 + V_343 + V_346 + V_349
                               + V_352 + V_355 + V_358 + V_361 + V_364 + V_367
                               + V_370 + V_373  = 0
 _EqCustomerFacilityY(0,3)#21: - W_3 + V_3 + V_4 + V_5 - W_7 + V_8 + V_11
                               - W_17 + V_14 - W_21 + V_17 - W_24 + V_20 - W_26
                               + V_23 + V_26 + V_29 + V_32 + V_35 + V_38 + V_41
                               + V_44 + V_47 + V_50 + V_53 + V_56 + V_59 + V_62
                               + V_65 + V_68 + V_71 + V_74 + V_77 + V_80 + V_83
                               + V_86 + V_89 + V_92 + V_95 + V_98 + V_101
                               + V_104 + V_107 + V_110 + V_113 + V_116 + V_119
                               + V_122 + V_125 + V_128 + V_131 + V_134 + V_137
                               + V_140 + V_143 + V_146 + V_149 + V_152 + V_155
                               + V_158 + V_161 + V_164 + V_167 + V_170 + V_173
                               + V_176 + V_179 + V_182 + V_185 + V_188 + V_191
                               + V_194 + V_197 + V_200 + V_203 + V_206 + V_209
                               + V_212 + V_215 + V_218 + V_221 + V_224 + V_227
                               + V_230 + V_233 + V_236 + V_239 + V_242 + V_245
                               + V_248 + V_251 + V_254 + V_257 + V_260 + V_263
                               + V_266 + V_269 + V_272 + V_275 + V_278 + V_281
                               + V_284 + V_287 + V_290 + V_293 + V_296 + V_299
                               + V_302 + V_305 + V_308 + V_311 + V_314 + V_317
                               + V_320 + V_323 + V_326 + V_329 + V_332 + V_335
                               + V_338 + V_341 + V_344 + V_347 + V_350 + V_353
                               + V_356 + V_359 + V_362 + V_365 + V_368 + V_371
                                = 0
 _EqCustomerFacilityY(1,3)#22: - W_3 + V_6 - W_7 + V_9 + V_12 + V_15 + V_18
                               - W_24 + V_21 - W_26 + V_24 + V_27 + V_30 + V_33
                               + V_36 + V_39 + V_42 + V_45 + V_48 + V_51 + V_54
                               + V_57 + V_60 + V_63 + V_66 + V_69 + V_72 + V_75
                               + V_78 + V_81 + V_84 + V_87 + V_90 + V_93 + V_96
                               + V_99 + V_102 + V_105 + V_108 + V_111 + V_114
                               + V_117 + V_120 + V_123 + V_126 + V_129 + V_132
                               + V_135 + V_138 + V_141 + V_144 + V_147 + V_150
                               + V_153 + V_156 + V_159 + V_162 + V_165 + V_168
                               + V_171 + V_174 + V_177 + V_180 + V_183 + V_186
                               + V_189 + V_192 + V_195 + V_198 + V_201 + V_204
                               + V_207 + V_210 + V_213 + V_216 + V_219 + V_222
                               + V_225 + V_228 + V_231 + V_234 + V_237 + V_240
                               + V_243 + V_246 + V_249 + V_252 + V_255 + V_258
                               + V_261 + V_264 + V_267 + V_270 + V_273 + V_276
                               + V_279 + V_282 + V_285 + V_288 + V_291 + V_294
                               + V_297 + V_300 + V_303 + V_306 + V_309 + V_312
                               + V_315 + V_318 + V_321 + V_324 + V_327 + V_330
                               + V_333 + V_336 + V_339 + V_342 + V_345 + V_348
                               + V_351 + V_354 + V_357 + V_360 + V_363 + V_366
                               + V_369 + V_372  = 0
 _EqCustomerFacilityY(2,3)#23: - W_3 - W_7 + V_7 + V_10 + V_13 + V_16 + V_19
                               + V_22 + V_25 + V_28 + V_31 + V_34 + V_37 + V_40
                               + V_43 + V_46 + V_49 + V_52 + V_55 + V_58 + V_61
                               + V_64 + V_67 + V_70 + V_73 + V_76 + V_79 + V_82
                               + V_85 + V_88 + V_91 + V_94 + V_97 + V_100
                               + V_103 + V_106 + V_109 + V_112 + V_115 + V_118
                               + V_121 + V_124 + V_127 + V_130 + V_133 + V_136
                               + V_139 + V_142 + V_145 + V_148 + V_151 + V_154
                               + V_157 + V_160 + V_163 + V_166 + V_169 + V_172
                               + V_175 + V_178 + V_181 + V_184 + V_187 + V_190
                               + V_193 + V_196 + V_199 + V_202 + V_205 + V_208
                               + V_211 + V_214 + V_217 + V_220 + V_223 + V_226
                               + V_229 + V_232 + V_235 + V_238 + V_241 + V_244
                               + V_247 + V_250 + V_253 + V_256 + V_259 + V_262
                               + V_265 + V_268 + V_271 + V_274 + V_277 + V_280
                               + V_283 + V_286 + V_289 + V_292 + V_295 + V_298
                               + V_301 + V_304 + V_307 + V_310 + V_313 + V_316
                               + V_319 + V_322 + V_325 + V_328 + V_331 + V_334
                               + V_337 + V_340 + V_343 + V_346 + V_349 + V_352
                               + V_355 + V_358 + V_361 + V_364 + V_367 + V_370
                               + V_373  = 0
 ConvFacility(0)#24:           V_0 + V_3 + V_4 + V_5 + V_8 + V_11 + V_14 + V_17
                               + V_20 + V_23 + V_26 + V_29 + V_32 + V_35 + V_38
                               + V_41 + V_44 + V_47 + V_50 + V_53 + V_56 + V_59
                               + V_62 + V_65 + V_68 + V_71 + V_74 + V_77 + V_80
                               + V_83 + V_86 + V_89 + V_92 + V_95 + V_98
                               + V_101 + V_104 + V_107 + V_110 + V_113 + V_116
                               + V_119 + V_122 + V_125 + V_128 + V_131 + V_134
                               + V_137 + V_140 + V_143 + V_146 + V_149 + V_152
                               + V_155 + V_158 + V_161 + V_164 + V_167 + V_170
                               + V_173 + V_176 + V_179 + V_182 + V_185 + V_188
                               + V_191 + V_194 + V_197 + V_200 + V_203 + V_206
                               + V_209 + V_212 + V_215 + V_218 + V_221 + V_224
                               + V_227 + V_230 + V_233 + V_236 + V_239 + V_242
                               + V_245 + V_248 + V_251 + V_254 + V_257 + V_260
                               + V_263 + V_266 + V_269 + V_272 + V_275 + V_278
                               + V_281 + V_284 + V_287 + V_290 + V_293 + V_296
                               + V_299 + V_302 + V_305 + V_308 + V_311 + V_314
                               + V_317 + V_320 + V_323 + V_326 + V_329 + V_332
                               + V_335 + V_338 + V_341 + V_344 + V_347 + V_350
                               + V_353 + V_356 + V_359 + V_362 + V_365 + V_368
                               + V_371  = 1
 ConvFacility(1)#25:           V_1 + V_6 + V_9 + V_12 + V_15 + V_18 + V_21
                               + V_24 + V_27 + V_30 + V_33 + V_36 + V_39 + V_42
                               + V_45 + V_48 + V_51 + V_54 + V_57 + V_60 + V_63
                               + V_66 + V_69 + V_72 + V_75 + V_78 + V_81 + V_84
                               + V_87 + V_90 + V_93 + V_96 + V_99 + V_102
                               + V_105 + V_108 + V_111 + V_114 + V_117 + V_120
                               + V_123 + V_126 + V_129 + V_132 + V_135 + V_138
                               + V_141 + V_144 + V_147 + V_150 + V_153 + V_156
                               + V_159 + V_162 + V_165 + V_168 + V_171 + V_174
                               + V_177 + V_180 + V_183 + V_186 + V_189 + V_192
                               + V_195 + V_198 + V_201 + V_204 + V_207 + V_210
                               + V_213 + V_216 + V_219 + V_222 + V_225 + V_228
                               + V_231 + V_234 + V_237 + V_240 + V_243 + V_246
                               + V_249 + V_252 + V_255 + V_258 + V_261 + V_264
                               + V_267 + V_270 + V_273 + V_276 + V_279 + V_282
                               + V_285 + V_288 + V_291 + V_294 + V_297 + V_300
                               + V_303 + V_306 + V_309 + V_312 + V_315 + V_318
                               + V_321 + V_324 + V_327 + V_330 + V_333 + V_336
                               + V_339 + V_342 + V_345 + V_348 + V_351 + V_354
                               + V_357 + V_360 + V_363 + V_366 + V_369 + V_372
                                = 1
 ConvFacility(2)#26:           V_2 + V_7 + V_10 + V_13 + V_16 + V_19 + V_22
                               + V_25 + V_28 + V_31 + V_34 + V_37 + V_40 + V_43
                               + V_46 + V_49 + V_52 + V_55 + V_58 + V_61 + V_64
                               + V_67 + V_70 + V_73 + V_76 + V_79 + V_82 + V_85
                               + V_88 + V_91 + V_94 + V_97 + V_100 + V_103
                               + V_106 + V_109 + V_112 + V_115 + V_118 + V_121
                               + V_124 + V_127 + V_130 + V_133 + V_136 + V_139
                               + V_142 + V_145 + V_148 + V_151 + V_154 + V_157
                               + V_160 + V_163 + V_166 + V_169 + V_172 + V_175
                               + V_178 + V_181 + V_184 + V_187 + V_190 + V_193
                               + V_196 + V_199 + V_202 + V_205 + V_208 + V_211
                               + V_214 + V_217 + V_220 + V_223 + V_226 + V_229
                               + V_232 + V_235 + V_238 + V_241 + V_244 + V_247
                               + V_250 + V_253 + V_256 + V_259 + V_262 + V_265
                               + V_268 + V_271 + V_274 + V_277 + V_280 + V_283
                               + V_286 + V_289 + V_292 + V_295 + V_298 + V_301
                               + V_304 + V_307 + V_310 + V_313 + V_316 + V_319
                               + V_322 + V_325 + V_328 + V_331 + V_334 + V_337
                               + V_340 + V_343 + V_346 + V_349 + V_352 + V_355
                               + V_358 + V_361 + V_364 + V_367 + V_370 + V_373
                                = 1
 ConvCustomer(0)#27:           W_0 + W_4 + W_8 + W_9 + W_12 + W_14 + W_18  = 1
 ConvCustomer(1)#28:           W_1 + W_5 + W_10 + W_15 + W_19 + W_22 + W_25
                               + W_27  = 1
 ConvCustomer(2)#29:           W_2 + W_6 + W_11 + W_13 + W_16 + W_20 + W_23
                                = 1
 ConvCustomer(3)#30:           W_3 + W_7 + W_17 + W_21 + W_24 + W_26  = 1
End
